ssat_solver_solve2
#level: 2
Abc_NtkNodeNum(s->pNtk): 238  , BDD limit: 10240
level 1: 20 element
Exist
existence_eliminate_scope
Abc_NtkIsBddLogic(pNtk): 0
Abc_NtkIsStrash(pNtk): 1
existence_eliminate_scope_aig
exist by BDD failed
Abc_NtkNodeNum(s->pNtk): 892465  , BDD limit: 1070958
Build BDD success
level 0: 20 element
Random
c ssat solving in ABC
#var: 40
s SATISFIABLE
  > Upper bound = 4.418945e-02
  > Lower bound = 4.418945e-02
FINISHED CPU 8.36 MEM 0 MAXMEM 207336 STALE 0 MAXMEM_RSS 155496
<time name="ALL">8360</time>
real 8.50
user 9.53
sys 3.92
